(set-logic QF_S)
(declare-fun var0 () String)
(assert (RegexIn var0 (RegexConcat (RegexUnion (RegexStar (Str2Reg "00")) (RegexStar (Str2Reg "111"))) (RegexConcat (RegexStar (RegexPlus (Str2Reg "222"))) (RegexConcat (RegexStar (RegexStar (Str2Reg "3"))) (RegexConcat (RegexPlus (RegexPlus (Str2Reg "44"))) (RegexConcat (RegexPlus (RegexUnion (Str2Reg "55") (Str2Reg "66"))) (RegexConcat (RegexPlus (RegexStar (Str2Reg "77"))) (RegexConcat (RegexPlus (RegexStar (Str2Reg "8"))) (RegexConcat (RegexPlus (RegexUnion (Str2Reg "9") (Str2Reg "aa"))) (RegexConcat (RegexUnion (RegexPlus (Str2Reg "bbb")) (RegexPlus (Str2Reg "cc"))) (RegexConcat (RegexUnion (RegexPlus (Str2Reg "ddd")) (RegexPlus (Str2Reg "e"))) (RegexConcat (RegexStar (RegexUnion (Str2Reg "fff") (Str2Reg "ggg"))) (RegexConcat (RegexStar (RegexStar (Str2Reg "h"))) (RegexConcat (RegexPlus (RegexPlus (Str2Reg "iii"))) (RegexConcat (RegexStar (RegexStar (Str2Reg "j"))) (RegexConcat (RegexUnion (RegexUnion (Str2Reg "k") (Str2Reg "l")) (RegexUnion (Str2Reg "mm") (Str2Reg "n"))) (RegexConcat (RegexPlus (RegexPlus (Str2Reg "ooo"))) (RegexConcat (RegexPlus (RegexStar (Str2Reg "pp"))) (RegexConcat (RegexStar (RegexUnion (Str2Reg "qqq") (Str2Reg "r"))) (RegexConcat (RegexStar (RegexPlus (Str2Reg "ss"))) (RegexConcat (RegexUnion (RegexStar (Str2Reg "t")) (RegexStar (Str2Reg "uu"))) (RegexConcat (RegexPlus (RegexStar (Str2Reg "vv"))) (RegexConcat (RegexStar (RegexStar (Str2Reg "ww"))) (RegexConcat (RegexPlus (RegexStar (Str2Reg "x"))) (RegexConcat (RegexUnion (RegexStar (Str2Reg "yyy")) (RegexStar (Str2Reg "zzz"))) (RegexConcat (RegexUnion (RegexStar (Str2Reg "AAA")) (RegexStar (Str2Reg "BBB"))) (RegexConcat (RegexPlus (RegexUnion (Str2Reg "C") (Str2Reg "DDD"))) (RegexConcat (RegexUnion (RegexUnion (Str2Reg "E") (Str2Reg "FF")) (RegexUnion (Str2Reg "G") (Str2Reg "H"))) (RegexConcat (RegexStar (RegexStar (Str2Reg "I"))) (RegexConcat (RegexUnion (RegexPlus (Str2Reg "J")) (RegexPlus (Str2Reg "KK"))) (RegexConcat (RegexPlus (RegexPlus (Str2Reg "L"))) (RegexConcat (RegexStar (RegexUnion (Str2Reg "MMM") (Str2Reg "NNN"))) (RegexConcat (RegexStar (RegexUnion (Str2Reg "OOO") (Str2Reg "PP"))) (RegexConcat (RegexStar (RegexUnion (Str2Reg "QQ") (Str2Reg "RRR"))) (RegexConcat (RegexStar (RegexPlus (Str2Reg "S"))) (RegexConcat (RegexStar (RegexUnion (Str2Reg "TTT") (Str2Reg "UU"))) (RegexConcat (RegexUnion (RegexStar (Str2Reg "VV")) (RegexStar (Str2Reg "WW"))) (RegexConcat (RegexUnion (RegexUnion (Str2Reg "XX") (Str2Reg "YYY")) (RegexUnion (Str2Reg "Z") (Str2Reg "!!!"))) (RegexConcat (RegexStar (RegexStar (Str2Reg "\"\"\""))) (RegexConcat (RegexPlus (RegexPlus (Str2Reg "##"))) (RegexConcat (RegexPlus (RegexStar (Str2Reg "$$"))) (RegexConcat (RegexUnion (RegexStar (Str2Reg "%%%")) (RegexStar (Str2Reg "&&"))) (RegexConcat (RegexPlus (RegexPlus (Str2Reg "'''"))) (RegexConcat (RegexUnion (RegexUnion (Str2Reg "(") (Str2Reg ")))")) (RegexUnion (Str2Reg "***") (Str2Reg "++"))) (RegexConcat (RegexPlus (RegexPlus (Str2Reg ","))) (RegexConcat (RegexStar (RegexStar (Str2Reg "-"))) (RegexConcat (RegexStar (RegexStar (Str2Reg "."))) (RegexConcat (RegexPlus (RegexPlus (Str2Reg "/"))) (RegexConcat (RegexPlus (RegexPlus (Str2Reg "::"))) (RegexConcat (RegexPlus (RegexStar (Str2Reg ";;;"))) (RegexConcat (RegexUnion (RegexUnion (Str2Reg "<<<") (Str2Reg "==")) (RegexUnion (Str2Reg ">>") (Str2Reg "???"))) (RegexConcat (RegexPlus (RegexUnion (Str2Reg "@@@") (Str2Reg "[["))) (RegexConcat (RegexUnion (RegexUnion (Str2Reg "\\") (Str2Reg "]]")) (RegexUnion (Str2Reg "^^^") (Str2Reg "___"))) (RegexConcat (RegexStar (RegexStar (Str2Reg "``"))) (RegexConcat (RegexPlus (RegexStar (Str2Reg "{{{"))) (RegexConcat (RegexStar (RegexPlus (Str2Reg "||"))) (RegexConcat (RegexStar (RegexUnion (Str2Reg "}}}") (Str2Reg "~"))) (RegexConcat (RegexStar (RegexPlus (Str2Reg "0"))) (RegexConcat (RegexPlus (RegexUnion (Str2Reg "111") (Str2Reg "22"))) (RegexConcat (RegexPlus (RegexUnion (Str2Reg "3") (Str2Reg "44"))) (RegexConcat (RegexUnion (RegexPlus (Str2Reg "55")) (RegexPlus (Str2Reg "66"))) (RegexConcat (RegexUnion (RegexStar (Str2Reg "777")) (RegexStar (Str2Reg "888"))) (RegexConcat (RegexStar (RegexUnion (Str2Reg "9") (Str2Reg "aa"))) (RegexConcat (RegexPlus (RegexPlus (Str2Reg "b"))) (RegexUnion (RegexUnion (Str2Reg "ccc") (Str2Reg "ddd")) (RegexUnion (Str2Reg "eee") (Str2Reg "fff"))))))))))))))))))))))))))))))))))))))))))))))))))))))))))))))))))))
(check-sat)